1 1 1 0 2 1 4 4 5 5
2 2 1 1 3 2 6 14 7 13
3 3 2 2 4 3 11 11
4 4 1 4 3 3 8 15 9 16
5 5 1 5 6 6 8 20
6 6 2 14 5 6 10 7
7 7 2 13 10 10 11 12
8 8 4 15 5 20 10 8
9 9 4 16 10 9 11 21
10 10 6 7 7 10 8 8 9 9
11 11 3 11 7 12 9 21